Total weight: 1303.018845184771
Route 1: 0 82 99 52 47 16 15 9 11 14 12 2 6 7 8 5 46 4 45 3 42 36 37 43 1 17 10 13 0 
Route 2: 0 39 38 72 31 29 28 30 33 63 51 22 19 23 21 18 76 85 62 84 20 49 89 50 34 27 26 32 93 54 68 100 55 0 
Route 3: 0 92 95 67 71 61 69 98 53 78 73 79 88 60 70 44 40 35 41 81 0 
Route 4: 0 65 64 83 57 86 75 74 87 59 97 58 77 25 48 24 66 56 91 0 
Route 5: 0 90 80 94 96 0 
